GridNetwork/LPSolve/2x3Grid_b
<?xml version="1.0" encoding="UTF-8" standalone="yes"?>
<intersections>
    <intersection>
        <active>true</active>
        <flowA>0.3</flowA>
        <flowB>0.3</flowB>
        <flowC>0.3</flowC>
        <flowD>0.3</flowD>
        <id>0</id>
        <numPhases>4</numPhases>
        <phaseAB>1</phaseAB>
        <phaseAC>1</phaseAC>
        <phaseAD>1</phaseAD>
        <phaseBA>2</phaseBA>
        <phaseBC>2</phaseBC>
        <phaseBD>2</phaseBD>
        <phaseCA>3</phaseCA>
        <phaseCB>3</phaseCB>
        <phaseCD>3</phaseCD>
        <phaseDA>4</phaseDA>
        <phaseDB>4</phaseDB>
        <phaseDC>4</phaseDC>
        <probAB>1.0</probAB>
        <probAC>0.0</probAC>
        <probAD>0.0</probAD>
        <probBA>0.25</probBA>
        <probBC>0.5</probBC>
        <probBD>0.25</probBD>
        <probCA>0.0</probCA>
        <probCB>0.0</probCB>
        <probCD>1.0</probCD>
        <probDA>0.25</probDA>
        <probDB>0.25</probDB>
        <probDC>0.5</probDC>
        <serviceDelay>0.0</serviceDelay>
        <sourceNorth rate="0.08333"/>
        <sourceWest rate="0.66666"/>
        <x>0</x>
        <y>0</y>
        <yellowDuration>0.0</yellowDuration>
    </intersection>
    <intersection>
        <active>true</active>
        <flowA>0.3</flowA>
        <flowB>0.3</flowB>
        <flowC>0.3</flowC>
        <flowD>0.3</flowD>
        <id>1</id>
        <numPhases>4</numPhases>
        <phaseAB>1</phaseAB>
        <phaseAC>1</phaseAC>
        <phaseAD>1</phaseAD>
        <phaseBA>2</phaseBA>
        <phaseBC>2</phaseBC>
        <phaseBD>2</phaseBD>
        <phaseCA>3</phaseCA>
        <phaseCB>3</phaseCB>
        <phaseCD>3</phaseCD>
        <phaseDA>4</phaseDA>
        <phaseDB>4</phaseDB>
        <phaseDC>4</phaseDC>
        <probAB>1.0</probAB>
        <probAC>0.0</probAC>
        <probAD>0.0</probAD>
        <probBA>0.25</probBA>
        <probBC>0.5</probBC>
        <probBD>0.25</probBD>
        <probCA>0.0</probCA>
        <probCB>0.0</probCB>
        <probCD>1.0</probCD>
        <probDA>0.25</probDA>
        <probDB>0.25</probDB>
        <probDC>0.5</probDC>
        <serviceDelay>0.0</serviceDelay>
        <sourceNorth rate="0.08333"/>
        <x>0</x>
        <y>1</y>
        <yellowDuration>0.0</yellowDuration>
    </intersection>
    <intersection>
        <active>true</active>
        <flowA>0.3</flowA>
        <flowB>0.3</flowB>
        <flowC>0.3</flowC>
        <flowD>0.3</flowD>
        <id>2</id>
        <numPhases>4</numPhases>
        <phaseAB>1</phaseAB>
        <phaseAC>1</phaseAC>
        <phaseAD>1</phaseAD>
        <phaseBA>2</phaseBA>
        <phaseBC>2</phaseBC>
        <phaseBD>2</phaseBD>
        <phaseCA>3</phaseCA>
        <phaseCB>3</phaseCB>
        <phaseCD>3</phaseCD>
        <phaseDA>4</phaseDA>
        <phaseDB>4</phaseDB>
        <phaseDC>4</phaseDC>
        <probAB>1.0</probAB>
        <probAC>0.0</probAC>
        <probAD>0.0</probAD>
        <probBA>0.25</probBA>
        <probBC>0.5</probBC>
        <probBD>0.25</probBD>
        <probCA>0.0</probCA>
        <probCB>0.875</probCB>
        <probCD>0.125</probCD>
        <probDA>0.25</probDA>
        <probDB>0.25</probDB>
        <probDC>0.5</probDC>
        <serviceDelay>0.0</serviceDelay>
        <sourceNorth rate="0.08333"/>
        <x>0</x>
        <y>2</y>
        <yellowDuration>0.0</yellowDuration>
    </intersection>
    <intersection>
        <active>true</active>
        <flowA>0.3</flowA>
        <flowB>0.3</flowB>
        <flowC>0.3</flowC>
        <flowD>0.3</flowD>
        <id>3</id>
        <numPhases>4</numPhases>
        <phaseAB>1</phaseAB>
        <phaseAC>1</phaseAC>
        <phaseAD>1</phaseAD>
        <phaseBA>2</phaseBA>
        <phaseBC>2</phaseBC>
        <phaseBD>2</phaseBD>
        <phaseCA>3</phaseCA>
        <phaseCB>3</phaseCB>
        <phaseCD>3</phaseCD>
        <phaseDA>4</phaseDA>
        <phaseDB>4</phaseDB>
        <phaseDC>4</phaseDC>
        <probAB>1.0</probAB>
        <probAC>0.0</probAC>
        <probAD>0.0</probAD>
        <probBA>0.25</probBA>
        <probBC>0.5</probBC>
        <probBD>0.25</probBD>
        <probCA>0.0</probCA>
        <probCB>0.0</probCB>
        <probCD>1.0</probCD>
        <probDA>0.25</probDA>
        <probDB>0.25</probDB>
        <probDC>0.5</probDC>
        <serviceDelay>0.0</serviceDelay>
        <sourceWest rate="0.08333"/>
        <x>1</x>
        <y>0</y>
        <yellowDuration>0.0</yellowDuration>
    </intersection>
    <intersection>
        <active>true</active>
        <flowA>0.3</flowA>
        <flowB>0.3</flowB>
        <flowC>0.3</flowC>
        <flowD>0.3</flowD>
        <id>4</id>
        <numPhases>4</numPhases>
        <phaseAB>1</phaseAB>
        <phaseAC>1</phaseAC>
        <phaseAD>1</phaseAD>
        <phaseBA>2</phaseBA>
        <phaseBC>2</phaseBC>
        <phaseBD>2</phaseBD>
        <phaseCA>3</phaseCA>
        <phaseCB>3</phaseCB>
        <phaseCD>3</phaseCD>
        <phaseDA>4</phaseDA>
        <phaseDB>4</phaseDB>
        <phaseDC>4</phaseDC>
        <probAB>1.0</probAB>
        <probAC>0.0</probAC>
        <probAD>0.0</probAD>
        <probBA>0.25</probBA>
        <probBC>0.5</probBC>
        <probBD>0.25</probBD>
        <probCA>0.0</probCA>
        <probCB>0.0</probCB>
        <probCD>1.0</probCD>
        <probDA>0.25</probDA>
        <probDB>0.25</probDB>
        <probDC>0.5</probDC>
        <serviceDelay>0.0</serviceDelay>
        <x>1</x>
        <y>1</y>
        <yellowDuration>0.0</yellowDuration>
    </intersection>
    <intersection>
        <active>true</active>
        <flowA>0.3</flowA>
        <flowB>0.3</flowB>
        <flowC>0.3</flowC>
        <flowD>0.3</flowD>
        <id>5</id>
        <numPhases>4</numPhases>
        <phaseAB>1</phaseAB>
        <phaseAC>1</phaseAC>
        <phaseAD>1</phaseAD>
        <phaseBA>2</phaseBA>
        <phaseBC>2</phaseBC>
        <phaseBD>2</phaseBD>
        <phaseCA>3</phaseCA>
        <phaseCB>3</phaseCB>
        <phaseCD>3</phaseCD>
        <phaseDA>4</phaseDA>
        <phaseDB>4</phaseDB>
        <phaseDC>4</phaseDC>
        <probAB>0.125</probAB>
        <probAC>0.0</probAC>
        <probAD>0.875</probAD>
        <probBA>0.25</probBA>
        <probBC>0.5</probBC>
        <probBD>0.25</probBD>
        <probCA>0.0</probCA>
        <probCB>0.0</probCB>
        <probCD>1.0</probCD>
        <probDA>0.25</probDA>
        <probDB>0.25</probDB>
        <probDC>0.5</probDC>
        <serviceDelay>0.0</serviceDelay>
        <x>1</x>
        <y>2</y>
        <yellowDuration>0.0</yellowDuration>
    </intersection>
</intersections>
